clingo version 5.4.1
Reading from provaASP18.lp
Solving...
Answer: 1
assign(1,10,6) assign(2,19,12) assign(3,47,7) assign(4,19,12) assign(5,10,6) assign(6,46,7) assign(7,19,12) assign(8,39,5) assign(9,31,11) assign(10,17,12) assign(11,48,7) assign(12,48,7) assign(13,47,7) assign(14,48,7) assign(15,7,2) assign(16,47,7) assign(17,31,11) assign(18,39,5) assign(19,10,6) assign(20,18,12) assign(21,48,7) assign(22,46,7) assign(23,47,7) assign(24,46,7) assign(25,46,7) assign(26,18,12) assign(27,18,12) assign(28,31,11) assign(29,39,5) assign(30,31,11) assign(31,18,12) assign(32,19,12) assign(33,10,6) assign(34,39,5) assign(35,11,12) count_seats_occupied(1,9,0) count_seats_occupied(1,22,0) count_seats_occupied(1,27,0) count_seats_occupied(1,37,0) count_seats_occupied(2,5,0) count_seats_occupied(2,7,1) count_seats_occupied(2,12,0) count_seats_occupied(2,14,0) count_seats_occupied(3,15,0) count_seats_occupied(3,21,0) count_seats_occupied(3,32,0) count_seats_occupied(3,33,0) count_seats_occupied(4,16,0) count_seats_occupied(4,35,0) count_seats_occupied(4,36,0) count_seats_occupied(4,42,0) count_seats_occupied(5,2,0) count_seats_occupied(5,13,0) count_seats_occupied(5,24,0) count_seats_occupied(5,39,4) count_seats_occupied(6,10,4) count_seats_occupied(6,20,0) count_seats_occupied(6,23,0) count_seats_occupied(6,44,0) count_seats_occupied(7,40,0) count_seats_occupied(7,46,4) count_seats_occupied(7,47,4) count_seats_occupied(7,48,4) count_seats_occupied(8,25,0) count_seats_occupied(8,38,0) count_seats_occupied(8,41,0) count_seats_occupied(8,43,0) count_seats_occupied(9,3,0) count_seats_occupied(9,6,0) count_seats_occupied(9,26,0) count_seats_occupied(9,45,0) count_seats_occupied(10,1,0) count_seats_occupied(10,4,0) count_seats_occupied(10,8,0) count_seats_occupied(10,34,0) count_seats_occupied(11,28,0) count_seats_occupied(11,29,0) count_seats_occupied(11,30,0) count_seats_occupied(11,31,4) count_seats_occupied(12,11,1) count_seats_occupied(12,17,1) count_seats_occupied(12,18,4) count_seats_occupied(12,19,4)
Optimization: 6
Answer: 2
assign(1,10,6) assign(2,19,12) assign(3,47,7) assign(4,19,12) assign(5,10,6) assign(6,46,7) assign(7,19,12) assign(8,31,11) assign(9,31,11) assign(10,17,12) assign(11,48,7) assign(12,48,7) assign(13,47,7) assign(14,48,7) assign(15,7,2) assign(16,47,7) assign(17,31,11) assign(18,11,12) assign(19,10,6) assign(20,18,12) assign(21,48,7) assign(22,46,7) assign(23,47,7) assign(24,46,7) assign(25,46,7) assign(26,18,12) assign(27,18,12) assign(28,7,2) assign(29,11,12) assign(30,7,2) assign(31,18,12) assign(32,19,12) assign(33,31,11) assign(34,11,12) assign(35,11,12) count_seats_occupied(1,9,0) count_seats_occupied(1,22,0) count_seats_occupied(1,27,0) count_seats_occupied(1,37,0) count_seats_occupied(2,5,0) count_seats_occupied(2,7,3) count_seats_occupied(2,12,0) count_seats_occupied(2,14,0) count_seats_occupied(3,15,0) count_seats_occupied(3,21,0) count_seats_occupied(3,32,0) count_seats_occupied(3,33,0) count_seats_occupied(4,16,0) count_seats_occupied(4,35,0) count_seats_occupied(4,36,0) count_seats_occupied(4,42,0) count_seats_occupied(5,2,0) count_seats_occupied(5,13,0) count_seats_occupied(5,24,0) count_seats_occupied(5,39,0) count_seats_occupied(6,10,3) count_seats_occupied(6,20,0) count_seats_occupied(6,23,0) count_seats_occupied(6,44,0) count_seats_occupied(7,40,0) count_seats_occupied(7,46,4) count_seats_occupied(7,47,4) count_seats_occupied(7,48,4) count_seats_occupied(8,25,0) count_seats_occupied(8,38,0) count_seats_occupied(8,41,0) count_seats_occupied(8,43,0) count_seats_occupied(9,3,0) count_seats_occupied(9,6,0) count_seats_occupied(9,26,0) count_seats_occupied(9,45,0) count_seats_occupied(10,1,0) count_seats_occupied(10,4,0) count_seats_occupied(10,8,0) count_seats_occupied(10,34,0) count_seats_occupied(11,28,0) count_seats_occupied(11,29,0) count_seats_occupied(11,30,0) count_seats_occupied(11,31,4) count_seats_occupied(12,11,4) count_seats_occupied(12,17,1) count_seats_occupied(12,18,4) count_seats_occupied(12,19,4)
Optimization: 5
Answer: 3
assign(1,10,6) assign(2,19,12) assign(3,47,7) assign(4,19,12) assign(5,10,6) assign(6,46,7) assign(7,19,12) assign(8,31,11) assign(9,31,11) assign(10,17,12) assign(11,48,7) assign(12,48,7) assign(13,47,7) assign(14,48,7) assign(15,10,6) assign(16,47,7) assign(17,31,11) assign(18,11,12) assign(19,10,6) assign(20,18,12) assign(21,48,7) assign(22,46,7) assign(23,47,7) assign(24,46,7) assign(25,46,7) assign(26,18,12) assign(27,18,12) assign(28,40,7) assign(29,11,12) assign(30,40,7) assign(31,18,12) assign(32,19,12) assign(33,31,11) assign(34,11,12) assign(35,11,12) count_seats_occupied(1,9,0) count_seats_occupied(1,22,0) count_seats_occupied(1,27,0) count_seats_occupied(1,37,0) count_seats_occupied(2,5,0) count_seats_occupied(2,7,0) count_seats_occupied(2,12,0) count_seats_occupied(2,14,0) count_seats_occupied(3,15,0) count_seats_occupied(3,21,0) count_seats_occupied(3,32,0) count_seats_occupied(3,33,0) count_seats_occupied(4,16,0) count_seats_occupied(4,35,0) count_seats_occupied(4,36,0) count_seats_occupied(4,42,0) count_seats_occupied(5,2,0) count_seats_occupied(5,13,0) count_seats_occupied(5,24,0) count_seats_occupied(5,39,0) count_seats_occupied(6,10,4) count_seats_occupied(6,20,0) count_seats_occupied(6,23,0) count_seats_occupied(6,44,0) count_seats_occupied(7,40,2) count_seats_occupied(7,46,4) count_seats_occupied(7,47,4) count_seats_occupied(7,48,4) count_seats_occupied(8,25,0) count_seats_occupied(8,38,0) count_seats_occupied(8,41,0) count_seats_occupied(8,43,0) count_seats_occupied(9,3,0) count_seats_occupied(9,6,0) count_seats_occupied(9,26,0) count_seats_occupied(9,45,0) count_seats_occupied(10,1,0) count_seats_occupied(10,4,0) count_seats_occupied(10,8,0) count_seats_occupied(10,34,0) count_seats_occupied(11,28,0) count_seats_occupied(11,29,0) count_seats_occupied(11,30,0) count_seats_occupied(11,31,4) count_seats_occupied(12,11,4) count_seats_occupied(12,17,1) count_seats_occupied(12,18,4) count_seats_occupied(12,19,4)
Optimization: 4
Answer: 4
assign(1,10,6) assign(2,19,12) assign(3,29,11) assign(4,19,12) assign(5,10,6) assign(6,30,11) assign(7,19,12) assign(8,28,11) assign(9,31,11) assign(10,17,12) assign(11,29,11) assign(12,28,11) assign(13,23,6) assign(14,30,11) assign(15,44,6) assign(16,23,6) assign(17,31,11) assign(18,11,12) assign(19,10,6) assign(20,18,12) assign(21,30,11) assign(22,31,11) assign(23,30,11) assign(24,28,11) assign(25,31,11) assign(26,18,12) assign(27,18,12) assign(28,28,11) assign(29,11,12) assign(30,29,11) assign(31,18,12) assign(32,19,12) assign(33,23,6) assign(34,11,12) assign(35,11,12) count_seats_occupied(1,9,0) count_seats_occupied(1,22,0) count_seats_occupied(1,27,0) count_seats_occupied(1,37,0) count_seats_occupied(2,5,0) count_seats_occupied(2,7,0) count_seats_occupied(2,12,0) count_seats_occupied(2,14,0) count_seats_occupied(3,15,0) count_seats_occupied(3,21,0) count_seats_occupied(3,32,0) count_seats_occupied(3,33,0) count_seats_occupied(4,16,0) count_seats_occupied(4,35,0) count_seats_occupied(4,36,0) count_seats_occupied(4,42,0) count_seats_occupied(5,2,0) count_seats_occupied(5,13,0) count_seats_occupied(5,24,0) count_seats_occupied(5,39,0) count_seats_occupied(6,10,3) count_seats_occupied(6,20,0) count_seats_occupied(6,23,3) count_seats_occupied(6,44,1) count_seats_occupied(7,40,0) count_seats_occupied(7,46,0) count_seats_occupied(7,47,0) count_seats_occupied(7,48,0) count_seats_occupied(8,25,0) count_seats_occupied(8,38,0) count_seats_occupied(8,41,0) count_seats_occupied(8,43,0) count_seats_occupied(9,3,0) count_seats_occupied(9,6,0) count_seats_occupied(9,26,0) count_seats_occupied(9,45,0) count_seats_occupied(10,1,0) count_seats_occupied(10,4,0) count_seats_occupied(10,8,0) count_seats_occupied(10,34,0) count_seats_occupied(11,28,4) count_seats_occupied(11,29,3) count_seats_occupied(11,30,4) count_seats_occupied(11,31,4) count_seats_occupied(12,11,4) count_seats_occupied(12,17,1) count_seats_occupied(12,18,4) count_seats_occupied(12,19,4)
Optimization: 3
SATISFIABLE

TIME LIMIT   : 1
Models       : 4+
  Optimum    : unknown
Optimization : 3
Calls        : 1
Time         : 300.000s (Solving: 286.78s 1st Model: 3.23s Unsat: 0.00s)
CPU Time     : 276.901s
